NAME : imp0048
COMMENT : Hamiltonian cycle problem (Erbacci) 
TYPE : HCP
DIMENSION : 48
EDGE_DATA_FORMAT : EDGE_LIST
EDGE_DATA_SECTION
     1	2
     1	4
     1	22
     1	5
     2	7
     2	10
		 2	3
		 3	12
		 3	15
		 3	4
		 4	17
		 4	20
		 5	6
		 6	7
		 7	8
		 8	9
		 9	10
		 10	11
		 11	12
		 12	13
		 13	14
		 14	15
		 15	16
		 16	17
		 17	18
		 18	19
		 19	20
		 20	21
		 21	22
		 22	23
		 23	24
		 24	5
		 25	26
		 26	27
		 27	28
		 28	29
		 29	30
		 30	31
		 31	32
		 32	33
		 33	34
		 34	35
		 35	36
		 36	37
		 37	38
		 38	39
		 39	40
		 40	25
		 41	42
		 42	43
		 43	44
		 44	45
		 45	46
		 46	47
		 47	48
		 48	41
		 23	26
		 24	28
		 6	29
		 8	30
		 9	32
		 11	33
		 13	34
		 14	36
		 16	37
		 18	38
		 19	40
		 21	25
		 25	41
		 27	42
		 29	43
		 31	44
		 33	45
		 35	46
		 37	47
		 39	48
-1
EOF

